language ESSENCE' 1.0

letting jobs = 102
letting horizon = 806
letting resourcesRenew = 2
letting resourcesNonrenew = 2
letting resourceLimits = [29, 27, 568, 600]
letting successors = [[2, 3, 4, 5, 6, 7, 8, 10, 11, 12, 14, 15, 17], [28, 26, 25, 23, 22, 19, 16, 13], [30, 28, 25, 24, 20, 19, 18, 16], [24, 20, 19, 16, 9], [28, 25, 19, 13], [25, 21, 16, 13], [38, 31, 29, 25, 13], [30, 25, 20, 16], [44, 34, 33, 31, 28, 26, 25], [42, 38, 33, 31, 29, 25, 20], [20, 16], [44, 27, 16], [42, 33, 30, 24, 20], [44, 39, 31, 29, 22], [44, 39, 38, 34, 29, 26], [42, 38, 34, 33, 32, 31, 29], [44, 38, 34, 29, 26], [46, 40, 39, 33, 29, 26], [44, 42, 37, 31, 27], [44, 37, 34, 27], [46, 40, 38, 37, 32, 31, 29], [53, 42, 36, 34, 33, 32], [49, 46, 42, 38, 36, 33], [53, 37, 36, 35, 34], [46, 43, 40, 39, 32], [53, 42, 37, 36, 32], [46, 39, 36, 32], [46, 38, 37, 29], [53, 49, 47, 41, 36], [53, 43, 37, 35], [53, 51, 49, 47, 36], [54, 49, 41, 35], [37, 35], [62, 55, 54, 46, 40], [59, 57, 56, 51, 50, 47, 45], [59, 56, 54, 50, 45, 43], [57, 54, 48, 41], [59, 56, 55, 53, 47], [67, 66, 61, 59, 56, 53, 52, 51], [59, 56, 49, 48], [61, 59, 56, 52, 51, 50], [66, 63, 62, 61, 60, 59, 56, 55, 52], [68, 63, 57, 55, 48], [68, 66, 62, 52, 51], [68, 64, 62, 48], [70, 59, 58, 56, 50], [68, 64, 48], [67, 66, 61, 60, 52], [71, 70, 69, 68, 63, 58, 57], [71, 69, 68, 66, 64, 63, 60], [70, 63, 60, 55], [75, 73, 71, 70, 69, 58], [71, 70, 69, 68, 65, 63], [69, 67, 65, 64], [69, 64, 58], [101, 89, 75, 73, 72, 65], [89, 65, 64], [101, 89, 86, 72, 65], [89, 82, 78, 77, 75, 74, 69], [89, 86, 72, 65], [89, 86, 75, 65], [82, 77, 73, 67], [101, 86, 83, 78, 77, 75, 72], [101, 82, 76, 73, 72], [85, 82, 80, 79, 78, 77, 76, 74], [101, 89, 87, 85, 82, 80, 76, 73], [101, 92, 89, 88, 86, 76, 72], [101, 89, 85, 84, 79, 78, 74], [100, 99, 87, 86, 85, 84, 80, 79, 76], [100, 89, 88, 87, 85, 84, 76], [101, 99, 98, 90, 87, 86, 85, 84, 79], [100, 99, 87, 85, 84, 80, 79], [100, 98, 92, 91, 90, 88, 86, 84], [100, 99, 98, 87, 83, 81], [98, 97, 96, 91, 90, 85, 84], [98, 83, 81], [99, 84, 81], [98, 97, 96, 92, 88], [97, 96, 94, 93, 91], [98, 96, 95, 93, 90], [96, 93, 91, 90], [96, 95, 93, 90], [97, 95, 94, 93], [95, 94, 93], [95, 94, 93], [97, 96, 93], [94, 93], [99, 93], [98, 93], [94], [95], [94], [102], [102], [102], [102], [102], [102], [102], [102], [102], []]
letting durations = [[0], [2, 9, 10], [1, 7, 10], [3, 6, 9], [3, 8, 9], [2, 10, 10], [4, 5, 6], [1, 1, 3], [4, 9, 10], [1, 7, 8], [4, 6, 8], [5, 6, 8], [2, 5, 10], [3, 8, 9], [3, 5, 6], [1, 2, 3], [5, 5, 9], [4, 5, 6], [1, 4, 7], [2, 6, 10], [3, 8, 9], [5, 6, 8], [6, 8, 9], [3, 6, 8], [3, 6, 10], [2, 8, 9], [3, 5, 10], [3, 4, 10], [1, 2, 6], [5, 6, 10], [4, 4, 10], [3, 8, 9], [3, 9, 10], [4, 9, 10], [3, 7, 10], [5, 6, 8], [4, 8, 9], [7, 10, 10], [4, 7, 7], [3, 4, 7], [5, 7, 9], [1, 1, 5], [6, 7, 9], [1, 7, 9], [1, 1, 10], [1, 2, 6], [6, 7, 9], [4, 4, 5], [2, 4, 10], [6, 6, 10], [7, 7, 9], [4, 8, 8], [1, 6, 8], [2, 6, 9], [1, 5, 5], [3, 7, 7], [3, 5, 10], [2, 3, 4], [3, 3, 7], [1, 3, 7], [2, 4, 5], [4, 6, 9], [4, 4, 5], [6, 8, 9], [3, 5, 6], [1, 3, 8], [3, 3, 4], [8, 8, 9], [5, 6, 9], [6, 6, 7], [2, 5, 9], [4, 5, 10], [2, 3, 9], [4, 8, 10], [4, 6, 10], [3, 3, 8], [2, 3, 8], [1, 5, 8], [2, 8, 8], [1, 3, 6], [1, 3, 8], [1, 6, 10], [1, 2, 3], [2, 3, 6], [1, 6, 9], [2, 6, 8], [4, 7, 9], [2, 6, 6], [3, 4, 7], [3, 4, 10], [1, 2, 9], [4, 6, 9], [4, 4, 8], [1, 4, 9], [5, 6, 8], [4, 8, 9], [1, 2, 7], [1, 3, 5], [2, 5, 10], [4, 6, 8], [1, 4, 5], [0]]
letting resourceUsage = [[[0, 0, 0, 0]], [[4, 0, 4, 7], [0, 3, 3, 5], [0, 3, 1, 3]], [[0, 4, 1, 6], [0, 3, 1, 5], [0, 3, 1, 2]], [[4, 0, 9, 7], [0, 1, 8, 6], [2, 0, 4, 6]], [[0, 5, 3, 9], [3, 0, 3, 7], [1, 0, 3, 7]], [[5, 0, 5, 6], [4, 0, 5, 5], [0, 3, 4, 3]], [[4, 0, 8, 10], [4, 0, 5, 8], [4, 0, 4, 6]], [[0, 2, 9, 4], [1, 0, 9, 4], [0, 1, 9, 4]], [[4, 0, 4, 5], [4, 0, 4, 4], [0, 2, 3, 4]], [[3, 0, 4, 4], [0, 4, 4, 2], [3, 0, 4, 2]], [[0, 3, 4, 7], [0, 3, 2, 5], [0, 1, 2, 3]], [[0, 4, 8, 5], [2, 0, 7, 5], [2, 0, 7, 3]], [[0, 2, 3, 6], [4, 0, 3, 5], [4, 0, 2, 5]], [[5, 0, 5, 7], [3, 0, 3, 5], [2, 0, 2, 4]], [[0, 3, 10, 10], [2, 0, 9, 9], [2, 0, 8, 8]], [[2, 0, 5, 7], [2, 0, 4, 6], [0, 1, 3, 6]], [[0, 3, 5, 7], [4, 0, 3, 7], [4, 0, 1, 6]], [[2, 0, 7, 10], [2, 0, 3, 7], [2, 0, 1, 4]], [[0, 4, 5, 8], [1, 0, 4, 6], [1, 0, 3, 5]], [[0, 3, 2, 9], [2, 0, 2, 8], [0, 2, 2, 6]], [[0, 4, 7, 5], [0, 3, 5, 3], [1, 0, 4, 3]], [[0, 4, 8, 3], [2, 0, 7, 1], [2, 0, 4, 1]], [[3, 0, 8, 3], [2, 0, 7, 3], [2, 0, 7, 2]], [[3, 0, 10, 7], [0, 1, 10, 4], [0, 1, 10, 2]], [[0, 4, 8, 5], [4, 0, 6, 4], [0, 4, 4, 3]], [[0, 2, 8, 8], [0, 1, 7, 5], [0, 1, 7, 2]], [[2, 0, 2, 6], [2, 0, 2, 5], [2, 0, 2, 4]], [[1, 0, 4, 8], [1, 0, 4, 7], [0, 4, 4, 5]], [[2, 0, 1, 5], [0, 2, 1, 3], [0, 1, 1, 1]], [[0, 1, 7, 7], [0, 1, 3, 5], [2, 0, 2, 5]], [[0, 1, 10, 9], [1, 0, 8, 7], [1, 0, 7, 5]], [[5, 0, 7, 7], [4, 0, 4, 7], [4, 0, 3, 6]], [[3, 0, 9, 5], [0, 2, 8, 3], [0, 1, 6, 1]], [[5, 0, 7, 7], [2, 0, 6, 5], [0, 2, 5, 2]], [[4, 0, 10, 8], [3, 0, 6, 4], [0, 2, 5, 3]], [[3, 0, 8, 7], [2, 0, 7, 6], [2, 0, 4, 4]], [[0, 5, 3, 1], [2, 0, 2, 2], [2, 0, 2, 1]], [[4, 0, 6, 4], [3, 0, 5, 4], [0, 5, 5, 4]], [[0, 3, 2, 4], [3, 0, 2, 2], [0, 2, 2, 2]], [[0, 1, 10, 6], [0, 1, 4, 6], [0, 1, 3, 5]], [[3, 0, 5, 6], [2, 0, 3, 4], [2, 0, 1, 4]], [[3, 0, 7, 7], [0, 3, 7, 6], [1, 0, 7, 6]], [[0, 2, 5, 5], [0, 1, 5, 5], [2, 0, 3, 5]], [[0, 4, 10, 7], [0, 4, 9, 5], [2, 0, 8, 1]], [[4, 0, 3, 1], [0, 3, 1, 2], [0, 3, 1, 1]], [[1, 0, 8, 7], [1, 0, 6, 3], [1, 0, 4, 1]], [[5, 0, 5, 5], [0, 3, 5, 3], [0, 2, 2, 3]], [[0, 4, 4, 9], [4, 0, 3, 8], [4, 0, 3, 7]], [[0, 5, 7, 7], [0, 4, 7, 6], [0, 4, 4, 5]], [[3, 0, 10, 4], [0, 2, 9, 3], [1, 0, 9, 3]], [[0, 4, 6, 4], [3, 0, 4, 4], [3, 0, 3, 3]], [[0, 1, 8, 5], [0, 1, 5, 5], [2, 0, 5, 5]], [[5, 0, 6, 9], [0, 1, 5, 9], [0, 1, 5, 7]], [[4, 0, 8, 3], [0, 2, 5, 2], [0, 1, 4, 2]], [[0, 2, 6, 6], [4, 0, 6, 5], [0, 2, 6, 3]], [[0, 1, 5, 6], [0, 1, 3, 4], [1, 0, 3, 3]], [[0, 4, 8, 7], [0, 4, 7, 4], [4, 0, 5, 1]], [[0, 5, 4, 9], [0, 4, 4, 7], [3, 0, 4, 6]], [[0, 5, 2, 9], [2, 0, 2, 9], [2, 0, 2, 7]], [[0, 3, 9, 3], [0, 3, 8, 3], [0, 3, 7, 3]], [[0, 3, 5, 9], [1, 0, 5, 6], [1, 0, 3, 4]], [[2, 0, 5, 4], [2, 0, 5, 3], [0, 1, 2, 2]], [[1, 0, 5, 9], [0, 5, 5, 5], [1, 0, 5, 5]], [[0, 3, 2, 5], [0, 3, 2, 4], [0, 3, 2, 3]], [[2, 0, 7, 8], [0, 1, 5, 7], [2, 0, 5, 6]], [[4, 0, 3, 9], [3, 0, 2, 7], [2, 0, 2, 6]], [[0, 4, 5, 9], [4, 0, 5, 8], [0, 2, 4, 8]], [[1, 0, 6, 7], [0, 2, 4, 4], [0, 2, 3, 3]], [[2, 0, 8, 9], [0, 3, 8, 9], [0, 2, 8, 8]], [[5, 0, 8, 7], [0, 2, 8, 4], [0, 2, 6, 2]], [[0, 4, 6, 7], [0, 4, 4, 4], [0, 4, 2, 4]], [[0, 4, 4, 9], [1, 0, 3, 4], [0, 2, 1, 3]], [[0, 5, 7, 6], [0, 4, 7, 6], [0, 4, 7, 5]], [[0, 2, 8, 8], [2, 0, 8, 6], [2, 0, 8, 4]], [[0, 4, 9, 7], [0, 4, 7, 4], [2, 0, 7, 3]], [[0, 3, 7, 6], [4, 0, 5, 6], [0, 3, 5, 6]], [[3, 0, 5, 6], [3, 0, 4, 6], [0, 1, 4, 2]], [[5, 0, 3, 4], [0, 3, 2, 3], [0, 3, 2, 2]], [[0, 2, 9, 8], [0, 1, 8, 8], [1, 0, 7, 6]], [[5, 0, 8, 7], [0, 3, 8, 5], [0, 3, 8, 4]], [[1, 0, 8, 9], [0, 1, 8, 9], [0, 1, 8, 8]], [[0, 2, 5, 8], [3, 0, 5, 8], [3, 0, 5, 7]], [[1, 0, 5, 4], [1, 0, 3, 4], [0, 2, 1, 4]], [[0, 4, 5, 9], [5, 0, 4, 8], [5, 0, 1, 8]], [[0, 1, 8, 4], [0, 1, 8, 3], [2, 0, 6, 3]], [[0, 4, 4, 4], [0, 3, 4, 2], [0, 3, 2, 2]], [[5, 0, 9, 7], [3, 0, 7, 6], [0, 2, 7, 6]], [[0, 5, 9, 5], [3, 0, 9, 5], [0, 1, 8, 2]], [[3, 0, 6, 6], [3, 0, 2, 5], [0, 2, 1, 5]], [[5, 0, 5, 5], [2, 0, 5, 4], [0, 3, 1, 4]], [[0, 4, 10, 6], [4, 0, 9, 6], [2, 0, 9, 4]], [[0, 4, 4, 6], [4, 0, 2, 4], [4, 0, 1, 4]], [[0, 4, 9, 10], [4, 0, 8, 9], [4, 0, 8, 8]], [[0, 1, 6, 4], [0, 1, 5, 4], [0, 1, 3, 4]], [[0, 3, 9, 9], [0, 3, 9, 8], [2, 0, 9, 8]], [[0, 5, 3, 7], [0, 5, 2, 5], [0, 5, 1, 2]], [[3, 0, 4, 9], [3, 0, 2, 4], [3, 0, 2, 3]], [[3, 0, 8, 9], [0, 3, 5, 9], [0, 3, 5, 8]], [[4, 0, 7, 7], [3, 0, 6, 4], [0, 1, 4, 1]], [[0, 2, 8, 10], [0, 1, 8, 9], [3, 0, 5, 8]], [[2, 0, 5, 9], [2, 0, 5, 8], [2, 0, 3, 9]], [[0, 0, 0, 0]]]
